(set-logic ALL)
(set-option :produce-models true)
(set-option :tlimit 60000)

;; ==============================================================================
;; v11: Cohomological Descent and q-Deformed Heisenberg Extensions 
;;      over Clebsch Geometries
;; ==============================================================================
;; This formalization extends the rigorous arithmetic geometry model of let-collapse.
;; The local coordinate space is mapped to the Clebsch strongly regular graph,
;; and the syntactic exchange of functions is modeled as the action of a q-deformed 
;; Heisenberg group extension on the F-crystal structure.
;;
;; Glossary of the Analogy:
;; - Abstract Syntax Tree -> Arithmetic Scheme
;; - Let Binding          -> Relative Fibration
;; - Environment Eval     -> Crystalline Realization
;; - Function Exchange    -> q-Deformed Heisenberg Involution
;; - Clebsch Graph        -> The 16-vertex Manifold of Local Coordinates
;; ==============================================================================

;; --------------------------------------------------------------------------
;; 1. The Moduli Space of Schemes (Algebraic Datatype for AST)
;; --------------------------------------------------------------------------
;; `Tensor` represents algebraic operations (e.g., addition), and `Fibration`
;; represents a structural hierarchy where a local coordinate (`bound_idx`) 
;; is assigned a `fiber` section to be evaluated over the `base` scheme.
(declare-datatypes ((Scheme 0))
  (((Const (c_val Int))
    (Coord (idx Int))
    (Tensor (left Scheme) (right Scheme))
    (Fibration (bound_idx Int) (fiber Scheme) (base Scheme)))))

;; --------------------------------------------------------------------------
;; 2. Crystalline Realization (Environment-Passing Evaluation)
;; --------------------------------------------------------------------------
;; A crystalline realization computes the numeric invariant of a scheme at a 
;; given rational point. The Fibration evaluates the fiber and locally extends 
;; the base coordinate system.
(define-fun-rec realize ((s Scheme) (env (Array Int Int))) Int
  (match s
    (((Const c) c)
     ((Coord idx) (select env idx))
     ((Tensor l r) (+ (realize l env) (realize r env)))
     ((Fibration idx fiber base)
       (realize base (store env idx (realize fiber env)))))))

;; --------------------------------------------------------------------------
;; 3. Base Change and Flat Morphisms (Substitution)
;; --------------------------------------------------------------------------
;; Performs a base change, injecting a globally defined section into a 
;; local coordinate, observing obstruction matching (shadowing).
(define-fun-rec base_change ((s Scheme) (target Int) (val Scheme)) Scheme
  (match s
    (((Const c) s)
     ((Coord idx) (ite (= idx target) val s))
     ((Tensor l r) (Tensor (base_change l target val) (base_change r target val)))
     ((Fibration idx fiber base)
       (Fibration idx 
                  (base_change fiber target val)
                  (ite (= idx target) 
                       base 
                       (base_change base target val)))))))

;; --------------------------------------------------------------------------
;; 4. Clebsch-Heisenberg Geometry and q-Deformed Automorphisms
;; --------------------------------------------------------------------------
;; The state space of our local coordinates is localized over the Clebsch graph 
;; (a 16-vertex, 5-regular, strongly regular graph with parameters (16,5,0,2)).
;; The subset of coordinates {0, ..., 9} forms an induced Petersen subgraph locus.
(define-fun is_petersen_locus ((idx Int)) Bool (and (>= idx 0) (<= idx 9)))
(define-fun is_clebsch_manifold ((idx Int)) Bool (and (>= idx 0) (<= idx 15)))

;; The exchange of functions/operands within the computational scheme is formalized 
;; as an action of the q-deformed Heisenberg group extension. On the crystalline 
;; level, this induces a Weyl-type involution that systematically swaps the tensor 
;; product components (i.e., the commutative functions).
(define-fun-rec heisenberg_involution ((s Scheme)) Scheme
  (match s
    (((Const c) s)
     ((Coord idx) s)
     ((Tensor l r) 
        ;; q-Deformed twist: Swapping the left and right branches of the F-crystal
        (Tensor (heisenberg_involution r) (heisenberg_involution l)))
     ((Fibration idx fiber base)
       (Fibration idx 
                  (heisenberg_involution fiber) 
                  (heisenberg_involution base))))))

;; --------------------------------------------------------------------------
;; 5. Flattening of the Fibration (Let-Elimination / Collapse)
;; --------------------------------------------------------------------------
;; Applies the Oka-Grauert principle: analytic continuation (variable resolution)
;; is topologically equivalent to algebraic flattening via base change.
(define-fun-rec collapse ((s Scheme)) Scheme
  (match s
    (((Const c) s)
     ((Coord idx) s)
     ((Tensor l r) (Tensor (collapse l) (collapse r)))
     ((Fibration idx fiber base)
       (collapse (base_change base idx (collapse fiber)))))))

;; --------------------------------------------------------------------------
;; 6. Arithmetic Degree (Structural Size / Intersection Multiplicity)
;; --------------------------------------------------------------------------
(define-fun-rec degree ((s Scheme)) Int
  (match s
    (((Const c) 1)
     ((Coord idx) 1)
     ((Tensor l r) (+ 1 (+ (degree l) (degree r))))
     ((Fibration idx fiber base) (+ 1 (+ (degree fiber) (degree base)))))))

;; --------------------------------------------------------------------------
;; 7. Constructing the Canonical Divisor Sequence (The Let-Chain)
;; --------------------------------------------------------------------------
;; canonical_chain(k) := Fibration k -> chain(k-1), Tensor(Coord(k), Coord(k))
(define-fun-rec canonical_chain ((k Int)) Scheme
  (ite (<= k 0)
       (Coord 0)
       (Fibration k (canonical_chain (- k 1)) (Tensor (Coord k) (Coord k)))))


;; ==============================================================================
;; 8. Verifications (Theorems of Cohomological Rigidity)
;; ==============================================================================

;; --------------------------------------------------------------------------
;; Theorem 1: Cohomological Descent (Semantic Preservation)
;; --------------------------------------------------------------------------
(echo "=== Verifying Theorem 1: Cohomological Descent (Semantic Preservation) ===")
(assert (not 
  (forall ((env (Array Int Int)))
    (= (realize (canonical_chain 3) env)
       (realize (collapse (canonical_chain 3)) env)))))

;; --------------------------------------------------------------------------
;; Theorem 2: Oka-Grauert Intersection Multiplicity Blow-up
;; --------------------------------------------------------------------------
(echo "=== Verifying Theorem 2: Intersection Multiplicity Blow-up (Exponential Size) ===")
(assert (not (and
  (= (degree (collapse (canonical_chain 0))) 1)
  (= (degree (collapse (canonical_chain 1))) 3)
  (= (degree (collapse (canonical_chain 2))) 7)
  (= (degree (collapse (canonical_chain 3))) 15)
  (= (degree (collapse (canonical_chain 4))) 31)
)))

;; --------------------------------------------------------------------------
;; Theorem 3: Rigidity of the Fibration (Linear complexity of bounded chain)
;; --------------------------------------------------------------------------
(echo "=== Verifying Theorem 3: Rigidity of the Fibration (Linear Size) ===")
(assert (not (and
  (= (degree (canonical_chain 0)) 1)
  (= (degree (canonical_chain 1)) 5)
  (= (degree (canonical_chain 2)) 9)
  (= (degree (canonical_chain 3)) 13)
  (= (degree (canonical_chain 4)) 17)
)))

;; --------------------------------------------------------------------------
;; Theorem 4: F-Isocrystal Invariance under Clebsch-Heisenberg Involution
;; --------------------------------------------------------------------------
;; Proves that the crystalline realization is an F-isocrystal, meaning its
;; semantic invariants are conserved under the q-deformed function exchange
;; (Heisenberg involution).
(echo "=== Verifying Theorem 4: F-Isocrystal Invariance under Heisenberg Involution ===")
(assert (not 
  (forall ((env (Array Int Int)))
    (= (realize (canonical_chain 3) env)
       (realize (heisenberg_involution (canonical_chain 3)) env)))))

;; ==============================================================================
;; Final Execution
;; ==============================================================================
(check-sat)
(echo "=== End of Verification. Expected: UNSAT ===")